Minimize
 obj: 0 X_0_1
Subject To
 out_0:
  + 1 X_0_1 + 1 X_0_2 + 1 X_0_3 + 1 X_0_4
  = 1
 in_0:
  + 1 X_1_0 + 1 X_2_0 + 1 X_3_0 + 1 X_4_0
  = 1
 out_1:
  + 1 X_1_0 + 1 X_1_2 + 1 X_1_3 + 1 X_1_4
  = 1
 in_1:
  + 1 X_0_1 + 1 X_2_1 + 1 X_3_1 + 1 X_4_1
  = 1
 out_2:
  + 1 X_2_0 + 1 X_2_1 + 1 X_2_3 + 1 X_2_4
  = 1
 in_2:
  + 1 X_0_2 + 1 X_1_2 + 1 X_3_2 + 1 X_4_2
  = 1
 out_3:
  + 1 X_3_0 + 1 X_3_1 + 1 X_3_2 + 1 X_3_4
  = 1
 in_3:
  + 1 X_0_3 + 1 X_1_3 + 1 X_2_3 + 1 X_4_3
  = 1
 out_4:
  + 1 X_4_0 + 1 X_4_1 + 1 X_4_2 + 1 X_4_3
  = 1
 in_4:
  + 1 X_0_4 + 1 X_1_4 + 1 X_2_4 + 1 X_3_4
  = 1
 mtz_1_2:
  + 1 U1 - 1 U2 + 4 X_1_2
  <= 3
 mtz_1_3:
  + 1 U1 - 1 U3 + 4 X_1_3
  <= 3
 mtz_1_4:
  + 1 U1 - 1 U4 + 4 X_1_4
  <= 3
 mtz_2_1:
  + 1 U2 - 1 U1 + 4 X_2_1
  <= 3
 mtz_2_3:
  + 1 U2 - 1 U3 + 4 X_2_3
  <= 3
 mtz_2_4:
  + 1 U2 - 1 U4 + 4 X_2_4
  <= 3
 mtz_3_1:
  + 1 U3 - 1 U1 + 4 X_3_1
  <= 3
 mtz_3_2:
  + 1 U3 - 1 U2 + 4 X_3_2
  <= 3
 mtz_3_4:
  + 1 U3 - 1 U4 + 4 X_3_4
  <= 3
 mtz_4_1:
  + 1 U4 - 1 U1 + 4 X_4_1
  <= 3
 mtz_4_2:
  + 1 U4 - 1 U2 + 4 X_4_2
  <= 3
 mtz_4_3:
  + 1 U4 - 1 U3 + 4 X_4_3
  <= 3
 obj1:
  + 261 X_0_1 + 579 X_0_2 + 3 X_0_3 + 66 X_0_4 + 261 X_1_0 + 696 X_1_2 + 259 X_1_3 + 275 X_1_4
  + 579 X_2_0 + 696 X_2_1 + 582 X_2_3 + 514 X_2_4 + 3 X_3_0 + 259 X_3_1 + 582 X_3_2 + 68 X_3_4
  + 66 X_4_0 + 275 X_4_1 + 514 X_4_2 + 68 X_4_3
  <= 1
 obj2:
  + 816 X_0_1 + 843 X_0_2 + 208 X_0_3 + 81 X_0_4 + 816 X_1_0 + 396 X_1_2 + 682 X_1_3 + 734 X_1_4
  + 843 X_2_0 + 396 X_2_1 + 803 X_2_3 + 771 X_2_4 + 208 X_3_0 + 682 X_3_1 + 803 X_3_2 + 162 X_3_4
  + 81 X_4_0 + 734 X_4_1 + 771 X_4_2 + 162 X_4_3
  <= 2
 obj3:
  + 545 X_0_1 + 220 X_0_2 + 709 X_0_3 + 205 X_0_4 + 545 X_1_0 + 745 X_1_2 + 959 X_1_3 + 356 X_1_4
  + 220 X_2_0 + 745 X_2_1 + 595 X_2_3 + 424 X_2_4 + 709 X_3_0 + 959 X_3_1 + 595 X_3_2 + 822 X_3_4
  + 205 X_4_0 + 356 X_4_1 + 424 X_4_2 + 822 X_4_3
  <= 3
 obj4:
  + 317 X_0_1 + 409 X_0_2 + 663 X_0_3 + 409 X_0_4 + 317 X_1_0 + 103 X_1_2 + 818 X_1_3 + 719 X_1_4
  + 409 X_2_0 + 103 X_2_1 + 839 X_2_3 + 801 X_2_4 + 663 X_3_0 + 818 X_3_1 + 839 X_3_2 + 549 X_3_4
  + 409 X_4_0 + 719 X_4_1 + 801 X_4_2 + 549 X_4_3
  <= 4
 obj5:
  + 313 X_0_1 + 666 X_0_2 + 594 X_0_3 + 251 X_0_4 + 313 X_1_0 + 482 X_1_2 + 650 X_1_3 + 495 X_1_4
  + 666 X_2_0 + 482 X_2_1 + 1133 X_2_3 + 911 X_2_4 + 594 X_3_0 + 650 X_3_1 + 1133 X_3_2 + 419 X_3_4
  + 251 X_4_0 + 495 X_4_1 + 911 X_4_2 + 419 X_4_3
  <= 5
 obj6:
  + 665 X_0_1 + 398 X_0_2 + 794 X_0_3 + 727 X_0_4 + 665 X_1_0 + 267 X_1_2 + 1050 X_1_3 + 1205 X_1_4
  + 398 X_2_0 + 267 X_2_1 + 902 X_2_3 + 990 X_2_4 + 794 X_3_0 + 1050 X_3_1 + 902 X_3_2 + 375 X_3_4
  + 727 X_4_0 + 1205 X_4_1 + 990 X_4_2 + 375 X_4_3
  <= 6
 obj7:
  + 738 X_0_1 + 876 X_0_2 + 535 X_0_3 + 462 X_0_4 + 738 X_1_0 + 288 X_1_2 + 365 X_1_3 + 275 X_1_4
  + 876 X_2_0 + 288 X_2_1 + 635 X_2_3 + 465 X_2_4 + 535 X_3_0 + 365 X_3_1 + 635 X_3_2 + 241 X_3_4
  + 462 X_4_0 + 275 X_4_1 + 465 X_4_2 + 241 X_4_3
  <= 7
Bounds
 1 <= U1 <= 4
 1 <= U2 <= 4
 1 <= U3 <= 4
 1 <= U4 <= 4
Binary
 X_0_1
 X_0_2
 X_0_3
 X_0_4
 X_1_0
 X_1_2
 X_1_3
 X_1_4
 X_2_0
 X_2_1
 X_2_3
 X_2_4
 X_3_0
 X_3_1
 X_3_2
 X_3_4
 X_4_0
 X_4_1
 X_4_2
 X_4_3
End
